;; Mutation-Based Equivalence Benchmark
;; Source:     AutomatArk / instance04111.smt2
;; Mutations:  intersect_no_dot_dot
;; Status:     sat
;;
;; Original regex vs mutated regex
;; Equivalence check: unsat ⟺ L(R1) = L(R2)

(set-info :smt-lib-version 2.6)
(set-info :category "mutation")
(set-info :status sat)
(set-logic QF_S)

(declare-const x String)

;; R1: original
;; R2: mutated (intersect_no_dot_dot)
(assert
  (str.in_re x
    (re.union (re.inter (re.++ (str.to_re "*PORT3*") (re.+ (re.union (str.to_re " ") (str.to_re "\u{9}") (str.to_re "\u{a}") (str.to_re "\u{c}") (str.to_re "\u{d}"))) (str.to_re "Warezxmlns:%3flinkautomatici.com\u{a}")) (re.comp (re.++ (str.to_re "*PORT3*") (re.+ (re.inter (re.union (str.to_re " ") (str.to_re "\u{9}") (str.to_re "\u{a}") (str.to_re "\u{c}") (str.to_re "\u{d}")) (re.comp (re.++ re.all (str.to_re "..") re.all)))) (str.to_re "Warezxmlns:%3flinkautomatici.com\u{a}")))) (re.inter (re.comp (re.++ (str.to_re "*PORT3*") (re.+ (re.union (str.to_re " ") (str.to_re "\u{9}") (str.to_re "\u{a}") (str.to_re "\u{c}") (str.to_re "\u{d}"))) (str.to_re "Warezxmlns:%3flinkautomatici.com\u{a}"))) (re.++ (str.to_re "*PORT3*") (re.+ (re.inter (re.union (str.to_re " ") (str.to_re "\u{9}") (str.to_re "\u{a}") (str.to_re "\u{c}") (str.to_re "\u{d}")) (re.comp (re.++ re.all (str.to_re "..") re.all)))) (str.to_re "Warezxmlns:%3flinkautomatici.com\u{a}"))))))

(check-sat)
(exit)
